p wcnf 181 90 91 
1 -7 60 0 
1 171 57 0 
1 -135 -85 0 
1 36 -46 0 
1 83 -98 0 
1 2 44 0 
1 17 27 0 
1 124 143 0 
1 66 111 0 
1 172 -32 0 
1 -46 50 0 
1 19 -60 0 
1 37 -125 0 
1 -14 154 0 
1 -17 -48 0 
1 50 -155 0 
1 49 29 0 
1 -130 13 0 
1 121 109 0 
1 -67 -125 0 
1 72 -23 0 
1 6 -177 0 
1 -64 -104 0 
1 109 -102 0 
1 -145 -132 0 
1 75 -34 0 
1 75 -64 0 
1 -2 -76 0 
1 39 22 0 
1 -94 33 0 
1 161 -18 0 
1 -70 130 0 
1 25 -87 0 
1 -104 172 0 
1 -29 -69 0 
1 -23 -99 0 
1 11 -72 0 
1 -44 153 0 
1 110 158 0 
1 -142 176 0 
1 -14 -79 0 
1 -20 -155 0 
1 -154 90 0 
1 -102 -31 0 
1 -147 97 0 
1 65 -126 0 
1 -15 -27 0 
1 170 131 0 
1 93 59 0 
1 -143 99 0 
1 87 -122 0 
1 -10 -43 0 
1 -140 -101 0 
1 2 -30 0 
1 32 -74 0 
1 91 -2 0 
1 35 -1 0 
1 -44 62 0 
1 -99 22 0 
1 -81 -149 0 
1 -66 139 0 
1 -44 -25 0 
1 -143 19 0 
1 55 34 0 
1 63 -2 0 
1 118 -1 0 
1 -151 105 0 
1 80 -150 0 
1 2 61 0 
1 54 181 0 
1 -179 -4 0 
1 105 -175 0 
1 -74 -50 0 
1 -146 165 0 
1 -144 -110 0 
1 174 -26 0 
1 106 -56 0 
1 -163 25 0 
1 140 112 0 
1 -125 -74 0 
1 -118 122 0 
1 81 -43 0 
1 -77 -22 0 
1 31 26 0 
1 -130 -173 0 
1 -147 41 0 
1 22 -124 0 
1 -143 177 0 
1 -170 -172 0 
1 58 -78 0 
